120
1000
200
199
199
199
198
198
198
198
198
198
197
197
196
196
195
195
194
194
194
193
192
192
192
191
191
191
190
189
189
188
187
187
186
186
185
185
185
183
182
182
181
181
181
181
179
179
179
178
177
177
177
176
176
174
174
174
172
172
171
171
171
171
171
171
170
170
170
170
170
170
168
167
167
167
166
166
166
165
165
164
164
164
164
164
163
161
160
160
160
160
159
157
157
157
157
157
157
156
156
156
156
156
156
156
156
156
155
155
155
154
154
154
154
153
152
152
150
150
150
150
